webassembly/ejemplos_dzn/folder14_json_0.dzn
TERM = { '.', 's(5)', 's(2)', 's(4)', 'in_1', 'local_0', 'local_1', 'in_2', 'in_4', 'in_3', 's(6)', 's(1)', 's(0)', 's(3)', 'in_0'};
null = '.';
s = 14;
n = 10;
ndeps = 10;
max_registers_sz = 5;
NR = 2;
registers = [|'local_0', 's(3)', |'local_1', 's(3)'|];
dependencies = [|'i32.load_1', 'i32.store16_2', |'i32.store16_2', 'i32.load8_u_3', |'i32.store16_2', 'i32.load16_s_5', |'i32.store16_2', 'i32.load8_s_7', |'i32.store16_2', 'i32.load8_u_8', |'i32.store16_9', 'i32.load8_u_13', |'i32.load8_u_3', 'i32.store16_9', |'i32.load16_s_5', 'i32.store16_9', |'i32.load8_s_7', 'i32.store16_9', |'i32.load8_u_8', 'i32.store16_9'|];
GET_ENUM = { GET1, GET2, GET3, GET4, GET5, GET6, GET7};
SET_ENUM = { SET1, SET2, SET3, SET4, SET5, SET6, SET7};
TEE_ENUM = { TEE1, TEE2, TEE3, TEE4, TEE5, TEE6, TEE7};
N = 9;
OP = { 'i32.sub_0', 'i32.load_1', 'i32.store16_2', 'i32.load8_u_3', 'i32.load16_s_5', 'i32.load8_s_7', 'i32.load8_u_8', 'i32.store16_9', 'i32.load8_u_13' };
in_ops = [2, 1, 2, 1, 1, 1, 1, 2, 1 ];
out_ops = [1, 1, 0, 1, 1, 1, 1, 0, 1 ];
in1 = ['in_0', 's(0)', 's(1)', 'in_3', 'local_0', 's(3)', 's(4)', 's(5)', 'in_4' ];
in2 = ['in_1', '.', 'in_2', '.', '.', '.', '.', 's(2)', '.' ];
in3 = ['.', '.', '.', '.', '.', '.', '.', '.', '.' ];
out1 = ['s(0)', 's(1)', '.', 's(2)', 's(3)', 's(4)', 's(5)', '.', 's(6)' ];
out2 = ['.', '.', '.', '.', '.', '.', '.', '.', '.' ];
out3 = ['.', '.', '.', '.', '.', '.', '.', '.', '.' ];
comm = [false, false, false, false, false, false, false, false, false ];
gas = [1, 1, 1, 1, 1, 1, 1, 1, 1 ];
sz = [1, 1, 1, 1, 1, 1, 1, 1, 1 ];
stor = [false, false, true, false, false, false, false, true, false ];
lb = [ 1, 1, 1, 1, 1, 1, 1, 1, 1 ];
ub = [ 14, 14, 14, 14, 14, 14, 14, 14, 14 ];
startstack = [ 'in_0', 'in_1', 'in_2', 'in_3', 'in_4', null, null, null, null, null ];
endstack = [ 's(6)', null, null, null, null, null, null, null, null, null ];
