webassembly/ejemplos_results/14/folder14_json_0.txt
value = 14;
fgas = [1, 1, 1, 1, 1, 1, 1, 1, 1, 1, 1, 1, 2, 1];
fsize = [1, 1, 1, 1, 1, 1, 1, 1, 1, 1, 1, 1, 1, 1];
states = 
[|    in_0,   in_1, in_2, in_3, in_4, '.', '.', '.', '.', '.'
 |  's(0)',   in_2, in_3, in_4,  '.', '.', '.', '.', '.', '.'
 |  's(0)',   in_2, in_3, in_4,  '.', '.', '.', '.', '.', '.'
 |  's(0)',   in_2, in_3, in_4,  '.', '.', '.', '.', '.', '.'
 |  's(1)',   in_2, in_3, in_4,  '.', '.', '.', '.', '.', '.'
 | local_0, 's(2)',  '.',  '.',  '.', '.', '.', '.', '.', '.'
 |  's(3)', 's(2)',  '.',  '.',  '.', '.', '.', '.', '.', '.'
 |  's(3)', 's(2)',  '.',  '.',  '.', '.', '.', '.', '.', '.'
 |  's(3)', 's(2)',  '.',  '.',  '.', '.', '.', '.', '.', '.'
 |  's(4)', 's(2)',  '.',  '.',  '.', '.', '.', '.', '.', '.'
 |  's(5)', 's(2)',  '.',  '.',  '.', '.', '.', '.', '.', '.'
 |    in_3,   in_4,  '.',  '.',  '.', '.', '.', '.', '.', '.'
 |  's(2)',   in_4,  '.',  '.',  '.', '.', '.', '.', '.', '.'
 |    in_4,    '.',  '.',  '.',  '.', '.', '.', '.', '.', '.'
 |  's(6)',    '.',  '.',  '.',  '.', '.', '.', '.', '.', '.'
 |];
register_states = 
[| local_0, local_1, '.', '.', '.', '.', '.'
 | local_0, local_1, '.', '.', '.', '.', '.'
 |  's(0)', local_1, '.', '.', '.', '.', '.'
 |  's(0)', local_1, '.', '.', '.', '.', '.'
 |  's(0)', local_1, '.', '.', '.', '.', '.'
 |  's(0)', local_1, '.', '.', '.', '.', '.'
 |  's(0)', local_1, '.', '.', '.', '.', '.'
 |  's(0)',  's(3)', '.', '.', '.', '.', '.'
 |  's(3)',  's(3)', '.', '.', '.', '.', '.'
 |  's(3)',  's(3)', '.', '.', '.', '.', '.'
 |  's(3)',  's(3)', '.', '.', '.', '.', '.'
 |  's(3)',  's(3)', '.', '.', '.', '.', '.'
 |  's(3)',  's(3)', '.', '.', '.', '.', '.'
 |  's(3)',  's(3)', '.', '.', '.', '.', '.'
 |  's(3)',  's(3)', '.', '.', '.', '.', '.'
 |];
program = [O('i32.sub_0'), TEE(TEE1), TEE(TEE1), O('i32.load_1'), O('i32.store16_2'), O('i32.load16_s_5'), TEE(TEE2), TEE(TEE1), O('i32.load8_s_7'), O('i32.load8_u_8'), O('i32.store16_9'), O('i32.load8_u_3'), POP, O('i32.load8_u_13')];
% time elapsed: 0.77 s
----------
=====UNKNOWN=====
% time elapsed: 0.99 s
